100 2500
2 20
1 42
1 10
1 21
1 12
2 11
2 29
1 35
1 33
1 4
1 28
2 49
2 2
1 8
2 31
1 39
2 50
2 37
2 9
1 46
2 30
1 32
2 13
2 48
2 40
1 18
1 40
2 47
2 15
1 14
1 2
2 6
2 3
1 29
1 49
2 7
2 5
1 26
2 39
1 22
1 44
1 27
2 36
1 8
1 5
2 41
1 32
1 12
2 33
1 44
1 31
2 16
2 22
2 1
2 27
1 14
1 37
2 17
1 47
1 23
2 43
1 48
1 41
1 9
2 1
1 35
1 7
2 38
2 17
1 19
2 38
1 18
2 45
1 13
1 10
2 15
1 26
1 42
2 46
1 20
1 21
1 3
2 25
2 4
1 24
2 30
1 11
2 43
1 16
2 34
2 45
2 50
2 28
1 36
1 34
1 6
2 23
2 25
2 24
1 19
